
List of user-set options:

                                    Name   Value                used
                           compl_inf_tol = 1                     yes
                         constr_viol_tol = 1                     yes
                            dual_inf_tol = 1000                  yes
                           linear_solver = ma97                  yes
                              ma86_small = 1e-30                  no
                                  ma86_u = 0.0001                 no
                              ma97_order = best                  yes
                              ma97_small = 1e-30                 yes
                            ma97_switch1 = at_start              yes
                            ma97_switch2 = od_hd_reuse           yes
                                  ma97_u = 1e-06                 yes
                               ma97_umax = 0.5                   yes
                                max_iter = 1000                  yes
                    max_refinement_steps = 20                    yes
                    min_refinement_steps = 5                     yes
                                 mu_init = 1e-06                 yes
           mu_superlinear_decrease_power = 1.25                  yes
                   nlp_scaling_min_value = 1e-08                 yes
                        option_file_name = Preset_Case_372_pf.opt  yes
                             output_file = ./tmp/Preset_Case_372_pf.output  yes
                      print_user_options = yes                   yes
        required_infeasibility_reduction = 1                      no
                                     tol = 1e-08                 yes
                   warm_start_bound_frac = 1e-20                 yes
                   warm_start_bound_push = 1e-20                 yes
                   warm_start_init_point = yes                   yes
              warm_start_mult_bound_push = 1e-20                 yes
                warm_start_mult_init_max = 1e+40                 yes
             warm_start_slack_bound_frac = 1e-20                 yes
             warm_start_slack_bound_push = 1e-20                 yes

******************************************************************************
This program contains Ipopt, a library for large-scale nonlinear optimization.
 Ipopt is released as open source code under the Eclipse Public License (EPL).
         For more information visit http://projects.coin-or.org/Ipopt
******************************************************************************

This is Ipopt version 3.12.10, running with linear solver ma97.

Number of nonzeros in equality constraint Jacobian...:   123442
Number of nonzeros in inequality constraint Jacobian.:      213
Number of nonzeros in Lagrangian Hessian.............:    49069

Total number of variables............................:    31591
                     variables with only lower bounds:    12912
                variables with lower and upper bounds:    15130
                     variables with only upper bounds:        0
Total number of equality constraints.................:    31483
Total number of inequality constraints...............:       25
        inequality constraints with only lower bounds:        4
   inequality constraints with lower and upper bounds:        0
        inequality constraints with only upper bounds:       21

iter    objective    inf_pr   inf_du lg(mu)  ||d||  lg(rg) alpha_du alpha_pr  ls
   0 -5.4255394e+00 4.04e-03 1.02e+00  -6.0 0.00e+00    -  0.00e+00 0.00e+00   0
   1 -5.4249019e+00 1.46e-01 1.02e+00  -6.0 3.40e+05    -  9.68e-05 8.42e-05h  5
   2 -5.4266547e+00 1.46e-01 3.79e+01  -6.0 3.34e+03    -  1.67e-01 1.95e-03h  1
   3 -5.6072783e+00 1.46e+00 5.43e+02  -6.0 3.33e+03    -  1.19e-01 2.01e-01f  1
   4 -5.7282114e+00 2.30e+00 7.72e+02  -6.0 2.51e+03    -  4.23e-01 2.08e-01h  1
   5 -5.9397990e+00 9.61e+00 2.90e+03  -6.0 2.94e+03    -  3.68e-02 6.58e-01h  1
   6 -5.9654933e+00 9.47e+00 1.17e+03  -6.0 7.88e+02    -  5.42e-02 1.00e+00h  1
   7 -5.9564721e+00 6.31e+00 7.79e+02  -6.0 2.48e+00  -4.0 7.05e-01 3.34e-01h  1
   8 -5.9379946e+00 9.53e-03 4.36e+01  -6.0 5.79e+00  -4.5 6.19e-02 1.00e+00h  1
   9 -5.9822288e+00 6.80e-01 7.69e+01  -6.0 1.16e+03    -  3.48e-01 3.72e-01h  1
iter    objective    inf_pr   inf_du lg(mu)  ||d||  lg(rg) alpha_du alpha_pr  ls
  10 -6.0084294e+00 6.80e-01 3.15e+01  -6.0 1.90e+02  -5.0 2.54e-03 1.00e+00h  1
  11 -5.9984280e+00 1.53e-02 5.95e+00  -6.0 7.02e+00  -5.4 7.83e-01 1.00e+00h  1
  12 -6.0001723e+00 9.51e-03 4.47e+00  -6.0 2.26e+01  -5.9 5.87e-01 1.00e+00h  1
  13 -6.0033818e+00 5.28e-02 1.23e+00  -6.0 4.15e+01  -6.4 1.00e+00 1.00e+00h  1
  14 -6.0079624e+00 2.82e-01 8.48e+00  -6.0 9.62e+01  -6.9 5.61e-01 1.00e+00h  1
  15 -6.0182809e+00 2.75e+00 1.24e+02  -6.0 4.08e+02  -7.3 2.62e-01 9.58e-01h  1
  16 -6.0302161e+00 3.90e+00 1.36e+03  -6.0 2.89e+03    -  1.86e-02 2.09e-01h  1
  17 -6.0331121e+00 3.86e+00 1.28e+03  -6.0 9.02e+03  -7.8 1.44e-02 9.18e-03h  1
  18 -6.0523766e+00 1.98e+00 6.98e+03  -6.0 7.66e+02    -  4.08e-01 1.00e+00h  1
  19 -6.0532346e+00 1.79e+00 1.39e+04  -6.0 3.47e+02    -  5.06e-01 9.53e-02h  1
iter    objective    inf_pr   inf_du lg(mu)  ||d||  lg(rg) alpha_du alpha_pr  ls
  20 -6.0616067e+00 1.35e+00 3.58e+02  -6.0 3.42e+02    -  1.00e+00 1.00e+00h  1
  21 -6.0664902e+00 1.03e+00 2.00e+04  -6.0 3.37e+02    -  4.58e-01 3.27e-01h  1
  22 -6.0773977e+00 9.04e-01 6.84e+04  -6.0 2.06e+02    -  1.00e+00 7.07e-01h  1
  23 -6.0811895e+00 7.47e-01 5.23e+05  -6.0 6.95e+02    -  8.96e-02 2.09e-01h  1
  24 -6.0812074e+00 7.47e-01 5.29e+05  -6.0 1.45e+03    -  1.11e-01 1.38e-04h  1
  25 -6.0961001e+00 1.90e+00 8.58e+04  -6.0 6.55e+02    -  4.36e-01 5.06e-01f  1
  26 -6.0965420e+00 5.82e+01 7.39e+05  -6.0 8.26e+03  -8.3 6.38e-03 2.30e-01h  1
  27 -6.0979524e+00 5.53e+01 8.04e+05  -6.0 3.91e+02  -6.1 5.44e-02 4.91e-02h  1
  28 -6.1023204e+00 4.82e+01 5.62e+05  -6.0 4.66e+02  -6.5 4.55e-03 1.28e-01h  1
  29 -6.1037175e+00 4.09e+01 4.78e+05  -6.0 6.42e+02  -7.0 1.64e-01 1.54e-01h  1
iter    objective    inf_pr   inf_du lg(mu)  ||d||  lg(rg) alpha_du alpha_pr  ls
  30 -6.1093229e+00 3.54e+01 4.00e+05  -6.0 1.34e+03  -7.5 1.91e-01 1.41e-01h  1
  31 -6.1528200e+00 2.17e+01 1.13e+05  -6.0 2.22e+03  -8.0 2.42e-01 7.19e-01h  1
  32 -6.1802058e+00 5.41e+01 5.78e+04  -6.0 9.26e+03  -8.4 2.33e-01 4.87e-01h  1
  33 -6.1874387e+00 5.01e+01 5.35e+04  -6.0 3.35e+03  -8.9 2.75e-01 7.52e-02h  1
  34 -6.1593255e+00 4.61e+00 1.20e+04  -6.0 1.29e+03    -  3.27e-01 1.00e+00h  1
  35 -6.1730111e+00 1.37e+00 1.27e+03  -6.0 1.30e+03    -  8.23e-01 7.78e-01h  1
  36 -6.1681720e+00 6.22e-02 1.80e+01  -6.0 3.28e+02    -  9.38e-01 1.00e+00h  1
  37 -6.1673385e+00 3.24e-03 1.36e-01  -6.0 3.63e+01    -  1.00e+00 1.00e+00h  1
  38 -6.1673287e+00 1.66e-04 8.77e-03  -6.0 2.01e+00    -  1.00e+00 1.00e+00h  1
  39 -6.1673270e+00 1.36e-06 8.99e-05  -6.0 1.82e-01    -  1.00e+00 1.00e+00h  1
iter    objective    inf_pr   inf_du lg(mu)  ||d||  lg(rg) alpha_du alpha_pr  ls
  40 -6.1673269e+00 2.85e-10 5.23e-11  -6.0 1.72e-04    -  1.00e+00 1.00e+00h  1
  41 -6.1674249e+00 2.68e+00 2.39e+01  -7.5 5.72e+02    -  6.45e-01 7.27e-01h  1
  42 -6.1674260e+00 7.05e-01 1.40e+01  -7.5 1.49e+02    -  1.00e+00 8.30e-01h  1
  43 -6.1674232e+00 1.18e-02 2.38e-02  -7.5 2.66e+01    -  1.00e+00 1.00e+00h  1
  44 -6.1674232e+00 1.78e-06 7.48e-07  -7.5 3.46e-01    -  1.00e+00 1.00e+00h  1
  45 -6.1674232e+00 2.82e-10 1.41e-11  -7.5 2.79e-05    -  1.00e+00 1.00e+00h  1
  46 -6.1674246e+00 3.42e-03 8.75e-01  -9.0 1.78e+01    -  9.21e-01 8.26e-01h  1
  47 -6.1674249e+00 1.53e-04 3.11e-04  -9.0 3.10e+00    -  1.00e+00 1.00e+00h  1
  48 -6.1674249e+00 4.28e-10 4.44e-09  -9.0 2.85e-03    -  1.00e+00 1.00e+00h  1

Number of Iterations....: 48

                                   (scaled)                 (unscaled)
Objective...............:  -4.8183007124685906e+00   -6.1674249119597961e+00
Dual infeasibility......:   4.4383949806882377e-09    5.6811455752809447e-09
Constraint violation....:   4.2849278975281430e-10    4.2849278975281430e-10
Complementarity.........:   1.3695117472327395e-09    1.7529750364579066e-09
Overall NLP error.......:   4.4383949806882377e-09    5.6811455752809447e-09


Number of objective function evaluations             = 54
Number of objective gradient evaluations             = 49
Number of equality constraint evaluations            = 54
Number of inequality constraint evaluations          = 54
Number of equality constraint Jacobian evaluations   = 49
Number of inequality constraint Jacobian evaluations = 49
Number of Lagrangian Hessian evaluations             = 48
Total CPU secs in IPOPT (w/o function evaluations)   =    112.047
Total CPU secs in NLP function evaluations           =      1.920

EXIT: Optimal Solution Found.
